
Gurobi 9.5.2 (mac64[arm]) logging started Fri Apr 28 13:25:51 2023

Set parameter LogFile to value "Java/output/pure_mip_2_machine/scenario_seed_2_nJob_30_machineCount_2/mip_increment_1/log.txt"
Gurobi Optimizer version 9.5.2 build v9.5.2rc0 (mac64[arm])
Thread count: 8 physical cores, 8 logical processors, using up to 8 threads
Optimize a model with 1546 rows, 21344 columns and 236352 nonzeros
Model fingerprint: 0xe805a836
Variable types: 0 continuous, 21344 integer (21344 binary)
Coefficient statistics:
  Matrix range     [1e+00, 1e+02]
  Objective range  [2e+00, 2e+06]
  Bounds range     [1e+00, 1e+00]
  RHS range        [1e+00, 1e+00]
Presolve removed 125 rows and 3754 columns
Presolve time: 0.25s
Presolved: 1421 rows, 17590 columns, 196274 nonzeros
Variable types: 0 continuous, 17590 integer (17588 binary)

Root relaxation: objective 1.243288e+05, 13587 iterations, 1.02 seconds (2.29 work units)

    Nodes    |    Current Node    |     Objective Bounds      |     Work
 Expl Unexpl |  Obj  Depth IntInf | Incumbent    BestBd   Gap | It/Node Time

     0     0 124328.752    0  261          - 124328.752      -     -    1s
     0     0 124823.293    0  369          - 124823.293      -     -    2s
     0     0 124869.083    0  366          - 124869.083      -     -    2s
     0     0 124869.083    0  366          - 124869.083      -     -    2s
     0     0 125972.359    0  450          - 125972.359      -     -    3s
     0     0 126074.507    0  450          - 126074.507      -     -    4s
     0     0 126087.846    0  474          - 126087.846      -     -    4s
     0     0 126090.417    0  465          - 126090.417      -     -    4s
     0     0 126090.653    0  463          - 126090.653      -     -    4s
     0     0 126700.805    0  474          - 126700.805      -     -    5s
     0     0 127311.143    0  475          - 127311.143      -     -    7s
     0     0 127539.547    0  495          - 127539.547      -     -    8s
     0     0 127548.966    0  493          - 127548.966      -     -    8s
     0     0 127557.869    0  506          - 127557.869      -     -    8s
     0     0 127559.166    0  490          - 127559.166      -     -    8s
     0     0 127559.191    0  490          - 127559.191      -     -    8s
     0     0 128410.504    0  537          - 128410.504      -     -   10s
H    0     0                    1083958.0000 129063.955  88.1%     -   12s
H    0     0                    761101.00000 129063.955  83.0%     -   12s
H    0     0                    724837.00000 129063.955  82.2%     -   12s
     0     0 129063.955    0  543 724837.000 129063.955  82.2%     -   12s
     0     0 129077.655    0  535 724837.000 129077.655  82.2%     -   12s
     0     0 129078.249    0  527 724837.000 129078.249  82.2%     -   12s
     0     0 129998.115    0  541 724837.000 129998.115  82.1%     -   15s
H    0     0                    712383.00000 129998.115  81.8%     -   15s
H    0     0                    712099.00000 129998.115  81.7%     -   15s
H    0     0                    688141.00000 130581.441  81.0%     -   17s
     0     0 130581.441    0  561 688141.000 130581.441  81.0%     -   17s
H    0     0                    687965.00000 130701.227  81.0%     -   19s
H    0     0                    687949.00000 130701.227  81.0%     -   19s
     0     0 130701.227    0  558 687949.000 130701.227  81.0%     -   19s
     0     0 130707.110    0  590 687949.000 130707.110  81.0%     -   19s
     0     0 130707.897    0  591 687949.000 130707.897  81.0%     -   19s
H    0     0                    672693.00000 131600.512  80.4%     -   20s
H    0     0                    668907.00000 131600.512  80.3%     -   20s
     0     0 131600.512    0  559 668907.000 131600.512  80.3%     -   20s
H    0     0                    667134.00000 131600.512  80.3%     -   20s
H    0     0                    667131.00000 131600.512  80.3%     -   20s
     0     0 132308.581    0  565 667131.000 132308.581  80.2%     -   22s
     0     0 132532.178    0  585 667131.000 132532.178  80.1%     -   23s
     0     0 132547.761    0  589 667131.000 132547.761  80.1%     -   23s
     0     0 132553.621    0  584 667131.000 132553.621  80.1%     -   23s
     0     0 132553.657    0  590 667131.000 132553.657  80.1%     -   23s
H    0     0                    652594.00000 133781.078  79.5%     -   25s
     0     0 133781.078    0  624 652594.000 133781.078  79.5%     -   25s
H    0     0                    652592.00000 133781.078  79.5%     -   25s
H    0     0                    652094.00000 133781.078  79.5%     -   25s
     0     0 134231.785    0  601 652094.000 134231.785  79.4%     -   27s
     0     0 134451.788    0  606 652094.000 134451.788  79.4%     -   28s
     0     0 134476.218    0  644 652094.000 134476.218  79.4%     -   28s
     0     0 134487.016    0  637 652094.000 134487.016  79.4%     -   28s
     0     0 134488.949    0  640 652094.000 134488.949  79.4%     -   28s
     0     0 135354.484    0  651 652094.000 135354.484  79.2%     -   30s
     0     0 135553.843    0  657 652094.000 135553.843  79.2%     -   31s
     0     0 135563.448    0  666 652094.000 135563.448  79.2%     -   31s
     0     0 135586.451    0  657 652094.000 135586.451  79.2%     -   32s
     0     0 135586.797    0  677 652094.000 135586.797  79.2%     -   32s
     0     0 136697.189    0  661 652094.000 136697.189  79.0%     -   34s
H    0     0                    610059.00000 136697.189  77.6%     -   34s
     0     0 136820.177    0  663 610059.000 136820.177  77.6%     -   35s
     0     0 136833.494    0  667 610059.000 136833.494  77.6%     -   35s
     0     0 136834.412    0  687 610059.000 136834.412  77.6%     -   35s
     0     0 137382.838    0  673 610059.000 137382.838  77.5%     -   36s
H    0     0                    275873.00000 137382.838  50.2%     -   37s
     0     0 137617.840    0  677 275873.000 137617.840  50.1%     -   37s
     0     0 137671.096    0  672 275873.000 137671.096  50.1%     -   38s
     0     0 137701.079    0  680 275873.000 137701.079  50.1%     -   38s
     0     0 137709.760    0  677 275873.000 137709.760  50.1%     -   38s
     0     0 137712.041    0  682 275873.000 137712.041  50.1%     -   38s
     0     0 138033.994    0  700 275873.000 138033.994  50.0%     -   39s
H    0     0                    275065.00000 138033.994  49.8%     -   39s
H    0     0                    189090.00000 138033.994  27.0%     -   40s
     0     0 138073.787    0  694 189090.000 138073.787  27.0%     -   40s
     0     0 138085.988    0  713 189090.000 138085.988  27.0%     -   40s
     0     0 138093.577    0  721 189090.000 138093.577  27.0%     -   41s
     0     0 138564.797    0  734 189090.000 138564.797  26.7%     -   42s
H    0     0                    189026.00000 138564.797  26.7%     -   42s
H    0     0                    174225.00000 138564.797  20.5%     -   42s
     0     0 138834.422    0  713 174225.000 138834.422  20.3%     -   43s
     0     0 138905.194    0  720 174225.000 138905.194  20.3%     -   43s
     0     0 138913.162    0  733 174225.000 138913.162  20.3%     -   43s
     0     0 139252.808    0  714 174225.000 139252.808  20.1%     -   45s
H    0     0                    173941.00000 139252.808  19.9%     -   45s
     0     0 139302.626    0  737 173941.000 139302.626  19.9%     -   46s
     0     0 139341.093    0  739 173941.000 139341.093  19.9%     -   47s
     0     0 139343.076    0  736 173941.000 139343.076  19.9%     -   47s
     0     0 139922.203    0  714 173941.000 139922.203  19.6%     -   49s
H    0     0                    173940.00000 139922.203  19.6%     -   49s
H    0     0                    173772.00000 139922.203  19.5%     -   49s
     0     0 139959.375    0  709 173772.000 139959.375  19.5%     -   49s
     0     0 139976.451    0  732 173772.000 139976.451  19.4%     -   50s
     0     0 139977.575    0  742 173772.000 139977.575  19.4%     -   50s
     0     0 140483.025    0  711 173772.000 140483.025  19.2%     -   52s
H    0     0                    173743.00000 140483.025  19.1%     -   52s
     0     0 140522.045    0  742 173743.000 140522.045  19.1%     -   52s
     0     0 140540.527    0  736 173743.000 140540.527  19.1%     -   53s
     0     0 140544.342    0  756 173743.000 140544.342  19.1%     -   53s
     0     0 140777.368    0  734 173743.000 140777.368  19.0%     -   54s
     0     0 140835.265    0  732 173743.000 140835.265  18.9%     -   55s
     0     0 140852.588    0  725 173743.000 140852.588  18.9%     -   55s
     0     0 140858.247    0  746 173743.000 140858.247  18.9%     -   55s
     0     0 141280.649    0  754 173743.000 141280.649  18.7%     -   57s
     0     0 141340.571    0  717 173743.000 141340.571  18.6%     -   57s
     0     0 141347.086    0  734 173743.000 141347.086  18.6%     -   58s
     0     0 141692.908    0  701 173743.000 141692.908  18.4%     -   59s
     0     0 141783.378    0  723 173743.000 141783.378  18.4%     -   60s
     0     0 141850.577    0  732 173743.000 141850.577  18.4%     -   61s
     0     0 141880.070    0  716 173743.000 141880.070  18.3%     -   61s
     0     0 141893.043    0  744 173743.000 141893.043  18.3%     -   61s
     0     0 142064.839    0  740 173743.000 142064.839  18.2%     -   62s
     0     0 142108.108    0  748 173743.000 142108.108  18.2%     -   63s
     0     0 142163.133    0  716 173743.000 142163.133  18.2%     -   63s
     0     0 142198.336    0  734 173743.000 142198.336  18.2%     -   64s
     0     0 142248.775    0  740 173743.000 142248.775  18.1%     -   64s
     0     0 142254.800    0  744 173743.000 142254.800  18.1%     -   64s
     0     0 142392.415    0  728 173743.000 142392.415  18.0%     -   66s
     0     0 142522.485    0  721 173743.000 142522.485  18.0%     -   67s
     0     0 142555.537    0  719 173743.000 142555.537  18.0%     -   68s
     0     0 142566.928    0  748 173743.000 142566.928  17.9%     -   68s
     0     0 142682.748    0  750 173743.000 142682.748  17.9%     -   69s
     0     0 142682.748    0  246 173743.000 142682.748  17.9%     -   71s
H    0     0                    173031.00000 142682.748  17.5%     -   71s
H    0     0                    173027.00000 142682.748  17.5%     -   71s
     0     0 142682.748    0  448 173027.000 142682.748  17.5%     -   72s
     0     0 142682.748    0  495 173027.000 142682.748  17.5%     -   73s
     0     0 142682.748    0  493 173027.000 142682.748  17.5%     -   74s
     0     0 142682.748    0  545 173027.000 142682.748  17.5%     -   75s
H    0     0                    173024.00000 142682.748  17.5%     -   77s
     0     0 142682.748    0  644 173024.000 142682.748  17.5%     -   77s
     0     0 142719.581    0  685 173024.000 142719.581  17.5%     -   78s
     0     0 142747.317    0  712 173024.000 142747.317  17.5%     -   78s
     0     0 142766.358    0  703 173024.000 142766.358  17.5%     -   78s
     0     0 142768.986    0  710 173024.000 142768.986  17.5%     -   78s
     0     0 142769.060    0  711 173024.000 142769.060  17.5%     -   78s
     0     0 142847.349    0  726 173024.000 142847.349  17.4%     -   79s
     0     0 142931.323    0  679 173024.000 142931.323  17.4%     -   79s
     0     0 142934.167    0  694 173024.000 142934.167  17.4%     -   79s
     0     0 143008.575    0  731 173024.000 143008.575  17.3%     -   80s
     0     0 143025.620    0  732 173024.000 143025.620  17.3%     -   80s
     0     0 143048.043    0  729 173024.000 143048.043  17.3%     -   80s
     0     0 143053.392    0  726 173024.000 143053.392  17.3%     -   80s
H    0     0                    173004.00000 143053.392  17.3%     -   82s
H    0     0                    172138.00000 143053.392  16.9%     -   83s
     0     0 143488.123    0  707 172138.000 143488.123  16.6%     -   83s
H    0     0                    171650.00000 143488.123  16.4%     -   83s
H    0     0                    171303.00000 143488.123  16.2%     -   85s
     0     0 144002.711    0  706 171303.000 144002.711  15.9%     -   85s
     0     0 144127.215    0  739 171303.000 144127.215  15.9%     -   86s
H    0     0                    171295.00000 144127.215  15.9%     -   87s
     0     0 144190.568    0  761 171295.000 144190.568  15.8%     -   87s
     0     0 144211.678    0  726 171295.000 144211.678  15.8%     -   87s
     0     0 144214.316    0  735 171295.000 144214.316  15.8%     -   87s
     0     0 144330.717    0  777 171295.000 144330.717  15.7%     -   88s
     0     0 144433.214    0  765 171295.000 144433.214  15.7%     -   89s
     0     0 144493.798    0  769 171295.000 144493.798  15.6%     -   90s
     0     0 144513.729    0  795 171295.000 144513.729  15.6%     -   90s
     0     0 144515.452    0  790 171295.000 144515.452  15.6%     -   90s
     0     0 144654.189    0  763 171295.000 144654.189  15.6%     -   91s
     0     0 144718.002    0  759 171295.000 144718.002  15.5%     -   92s
     0     0 144723.628    0  783 171295.000 144723.628  15.5%     -   92s
     0     0 144890.486    0  805 171295.000 144890.486  15.4%     -   93s
     0     0 144909.098    0  807 171295.000 144909.098  15.4%     -   94s
     0     0 144971.512    0  781 171295.000 144971.512  15.4%     -   95s
     0     0 144971.512    0  759 171295.000 144971.512  15.4%     -   95s
     0     2 144981.871    0  758 171295.000 144981.871  15.4%     -   97s
     3     8 145426.917    2  801 171295.000 145005.388  15.3%  3702  102s
     7    16 145657.853    3  767 171295.000 145426.917  15.1%  5690  105s
    23    32 147373.017    4  714 171295.000 146977.042  14.2%  8632  111s
H   31    40                    157285.00000 146977.042  6.55%  7837  113s
    39    45 147546.373    5  694 157285.000 147022.559  6.52%  8476  115s
    58    54 147472.857    7  686 157285.000 147142.813  6.45%  7307  121s
H   70    60                    155533.00000 147142.813  5.39%  6509  125s
H   73    60                    153110.00000 147354.092  3.76%  6346  125s
   104    81 148340.321   10  442 153110.000 147354.092  3.76%  5715  130s
H  112    81                    153101.00000 147354.092  3.75%  5389  130s
   153   109 150140.854   13  639 153101.000 147354.092  3.75%  4817  136s
H  154   109                    153093.00000 147354.092  3.75%  4786  136s
H  166   109                    152014.00000 147354.092  3.07%  4576  136s
H  199   122                    151485.00000 147354.092  2.73%  4186  141s
H  199   122                    151438.00000 147354.092  2.70%  4186  141s
H  206   122                    150918.00000 147354.092  2.36%  4090  141s
H  251   113                    150914.00000 147354.092  2.36%  3689  144s
H  251   113                    150910.00000 147354.092  2.36%  3689  144s
   269   113 150498.038   18  598 150910.000 147354.092  2.36%  3585  147s
H  299    74                    150906.00000 147354.092  2.35%  3450  148s
   300    75 147354.092    0  750 150906.000 147354.092  2.35%  3438  153s
   305    78 147354.092    0  532 150906.000 147354.092  2.35%  3382  155s
   318    87 147354.092    0  746 150906.000 147354.092  2.35%  3244  160s
   331    96 148612.062    0  723 150906.000 148612.062  1.52%  3116  165s
   357   113 149190.409    0  787 150906.000 149190.409  1.14%  2889  170s
   377   128 149423.304    0  649 150906.000 149423.304  0.98%  3039  175s
   410   150 149896.776    0  691 150906.000 149896.776  0.67%  2794  180s
   436   169 149978.625    0  299 150906.000 149978.625  0.61%  2804  185s
H  441   163                    150763.00000 150010.654  0.50%  2772  185s
H  452   163                    150720.00000 150697.845  0.01%  2765  186s

Cutting planes:
  Gomory: 4
  Cover: 1
  Clique: 13
  MIR: 13
  StrongCG: 8
  Flow cover: 11
  GUB cover: 21
  Zero half: 4

Explored 467 nodes (1653944 simplex iterations) in 187.13 seconds (449.61 work units)
Thread count was 8 (of 8 available processors)

Solution count 10: 150720 150720 150763 ... 150914

Optimal solution found (tolerance 1.00e-04)
Best objective 1.507200000000e+05, best bound 1.507050000000e+05, gap 0.0100%
